33D32945 STP File, STP Format Version 1.0

SECTION Comment
Name    "i080-341"
Creator "Cees Duin"
Remark  "Incidence graph"
END

SECTION Graph
Nodes 80
Edges 632
E 1 6 301
E 1 8 298
E 1 11 304
E 1 12 299
E 1 14 300
E 1 15 300
E 1 27 204
E 1 28 205
E 1 35 195
E 1 43 197
E 1 46 204
E 1 47 191
E 1 54 197
E 1 61 215
E 1 65 200
E 1 67 199
E 1 69 205
E 1 70 204
E 1 73 198
E 1 76 200
E 1 79 209
E 2 37 200
E 2 39 196
E 2 41 195
E 2 42 203
E 2 45 202
E 2 49 206
E 2 50 195
E 2 52 200
E 2 54 202
E 2 58 199
E 2 63 202
E 2 71 205
E 2 79 206
E 2 80 206
E 3 15 308
E 3 16 300
E 3 22 200
E 3 32 197
E 3 34 201
E 3 35 194
E 3 47 202
E 4 5 302
E 4 12 289
E 4 15 296
E 4 27 205
E 4 29 199
E 4 30 206
E 4 32 200
E 4 33 212
E 4 47 208
E 4 50 206
E 4 52 194
E 4 53 205
E 4 54 203
E 4 64 200
E 4 66 206
E 4 70 206
E 4 71 202
E 4 74 194
E 4 76 197
E 4 78 197
E 5 11 301
E 5 15 291
E 5 26 202
E 5 30 198
E 5 32 195
E 5 34 208
E 5 43 204
E 5 52 204
E 5 54 200
E 5 58 203
E 5 59 197
E 5 63 196
E 5 70 202
E 5 72 202
E 5 79 200
E 6 10 301
E 6 16 295
E 6 18 306
E 6 28 197
E 6 36 201
E 6 55 193
E 6 62 198
E 6 65 192
E 6 68 195
E 6 74 214
E 6 77 188
E 6 78 201
E 6 80 191
E 7 11 301
E 7 12 304
E 7 26 200
E 7 33 202
E 7 50 200
E 7 53 205
E 7 62 196
E 7 64 201
E 7 75 211
E 7 80 200
E 8 9 299
E 8 13 300
E 8 19 295
E 8 21 200
E 8 27 198
E 8 31 203
E 8 35 204
E 8 38 196
E 8 52 199
E 8 54 203
E 8 60 192
E 8 61 205
E 8 63 198
E 8 68 200
E 8 72 207
E 9 16 296
E 9 35 194
E 9 43 201
E 9 47 199
E 9 60 206
E 9 67 192
E 9 70 191
E 10 35 195
E 10 36 193
E 10 46 206
E 10 51 197
E 10 54 202
E 10 57 197
E 10 63 202
E 10 64 196
E 10 67 193
E 10 76 200
E 10 79 189
E 10 80 204
E 11 16 298
E 11 22 204
E 11 29 196
E 11 33 192
E 11 36 200
E 11 52 196
E 11 59 198
E 11 61 208
E 11 63 203
E 11 64 201
E 11 70 198
E 11 74 198
E 11 77 200
E 12 15 300
E 12 16 304
E 12 18 304
E 12 40 202
E 12 42 196
E 12 45 208
E 12 47 194
E 12 48 200
E 12 52 202
E 12 55 200
E 12 56 201
E 12 57 208
E 12 59 197
E 12 68 200
E 12 74 208
E 13 14 304
E 13 17 301
E 13 20 307
E 13 23 196
E 13 36 194
E 13 44 205
E 13 49 197
E 13 52 203
E 13 58 211
E 13 61 197
E 13 62 197
E 13 63 202
E 13 65 199
E 13 66 194
E 13 77 201
E 13 80 195
E 14 17 304
E 14 18 300
E 14 21 201
E 14 27 193
E 14 28 203
E 14 38 199
E 14 39 203
E 14 42 197
E 14 44 202
E 14 49 198
E 14 51 210
E 14 56 200
E 14 71 192
E 14 79 200
E 15 18 303
E 15 20 295
E 15 23 207
E 15 28 204
E 15 34 199
E 15 40 202
E 15 42 199
E 15 47 204
E 15 49 194
E 15 55 196
E 15 56 190
E 15 57 202
E 15 59 193
E 15 63 208
E 15 65 209
E 15 66 200
E 15 71 196
E 15 73 200
E 15 75 199
E 15 76 207
E 16 18 300
E 16 21 193
E 16 26 203
E 16 38 196
E 16 45 193
E 16 47 202
E 16 50 201
E 16 51 202
E 16 52 197
E 16 53 200
E 16 54 193
E 16 67 192
E 16 70 215
E 17 20 294
E 17 22 189
E 17 23 201
E 17 24 204
E 17 39 200
E 17 40 199
E 17 42 200
E 17 47 196
E 17 49 200
E 17 51 199
E 17 59 201
E 17 62 207
E 17 63 197
E 17 72 191
E 17 75 200
E 17 77 198
E 17 78 204
E 18 20 290
E 18 26 200
E 18 27 204
E 18 35 202
E 18 36 209
E 18 52 207
E 18 57 193
E 18 58 199
E 18 61 214
E 18 64 207
E 18 66 201
E 18 68 206
E 18 72 202
E 18 77 199
E 19 24 202
E 19 27 206
E 19 31 193
E 19 33 205
E 19 41 201
E 19 49 189
E 19 56 200
E 19 61 198
E 19 63 189
E 19 67 195
E 19 70 202
E 19 75 208
E 20 25 205
E 20 37 199
E 20 43 201
E 20 44 201
E 20 45 194
E 20 46 200
E 20 47 193
E 20 52 199
E 20 59 199
E 20 70 200
E 20 73 206
E 20 74 192
E 20 77 203
E 20 78 191
E 20 79 192
E 21 22 96
E 21 24 98
E 21 26 104
E 21 47 101
E 21 49 109
E 21 58 105
E 21 61 100
E 21 70 100
E 21 72 98
E 21 74 103
E 21 75 100
E 21 77 110
E 22 23 96
E 22 25 91
E 22 31 97
E 22 35 102
E 22 45 93
E 22 46 106
E 22 47 102
E 22 49 105
E 22 65 106
E 22 70 103
E 22 72 102
E 22 74 101
E 22 77 99
E 23 24 102
E 23 30 94
E 23 34 103
E 23 41 98
E 23 44 98
E 23 46 99
E 23 48 86
E 23 50 96
E 23 53 97
E 23 56 99
E 23 60 97
E 23 64 99
E 23 67 97
E 23 79 101
E 24 26 97
E 24 44 92
E 24 46 96
E 24 55 103
E 24 68 97
E 24 76 100
E 25 37 108
E 25 47 108
E 25 57 96
E 25 65 108
E 25 69 94
E 26 27 98
E 26 37 99
E 26 40 95
E 26 42 105
E 26 51 96
E 26 58 93
E 26 68 99
E 26 76 99
E 26 80 102
E 27 33 99
E 27 36 97
E 27 41 96
E 27 48 98
E 27 49 97
E 27 54 100
E 27 62 100
E 27 68 110
E 28 31 94
E 28 32 98
E 28 40 98
E 28 42 96
E 28 50 106
E 28 52 109
E 28 58 97
E 28 63 98
E 28 66 99
E 28 68 102
E 28 77 92
E 29 38 98
E 29 44 90
E 29 46 109
E 29 49 97
E 29 51 103
E 29 57 105
E 29 60 95
E 29 69 97
E 29 70 100
E 29 71 93
E 29 72 96
E 29 73 107
E 30 31 98
E 30 32 107
E 30 33 97
E 30 42 94
E 30 45 91
E 30 49 95
E 30 58 99
E 30 59 106
E 30 64 94
E 30 70 97
E 30 79 98
E 31 37 96
E 31 40 107
E 31 45 104
E 31 47 96
E 31 53 95
E 31 55 97
E 31 56 109
E 31 58 101
E 31 64 102
E 31 70 103
E 31 71 94
E 31 74 104
E 31 76 97
E 32 41 108
E 32 45 97
E 32 47 106
E 32 48 95
E 32 55 98
E 32 56 107
E 32 74 99
E 33 41 97
E 33 43 110
E 33 46 112
E 33 47 93
E 33 58 98
E 33 60 104
E 33 76 100
E 33 79 100
E 34 38 101
E 34 42 96
E 34 45 103
E 34 49 106
E 34 57 92
E 34 60 99
E 34 61 90
E 34 76 89
E 34 77 102
E 34 80 92
E 35 37 102
E 35 42 97
E 35 57 99
E 35 60 101
E 35 64 98
E 35 67 96
E 35 73 99
E 35 79 100
E 36 37 108
E 36 38 95
E 36 42 106
E 36 46 92
E 36 48 95
E 36 49 110
E 36 53 99
E 36 58 98
E 36 59 109
E 36 61 99
E 36 68 105
E 36 69 96
E 36 71 102
E 37 44 94
E 37 46 103
E 37 48 98
E 37 50 104
E 37 51 97
E 37 52 98
E 37 53 102
E 37 59 93
E 37 60 93
E 37 69 99
E 38 45 99
E 38 49 109
E 38 74 98
E 38 77 104
E 39 44 101
E 39 47 99
E 39 48 90
E 39 49 98
E 39 53 94
E 39 54 93
E 39 55 89
E 39 60 95
E 39 62 108
E 39 73 101
E 39 74 98
E 40 61 105
E 40 67 98
E 40 79 100
E 40 80 95
E 41 48 102
E 41 49 95
E 41 58 96
E 41 62 90
E 41 68 102
E 41 71 99
E 41 72 105
E 41 79 97
E 41 80 100
E 42 45 105
E 42 47 102
E 42 48 103
E 42 54 98
E 42 56 99
E 42 57 104
E 42 70 101
E 42 74 102
E 42 78 100
E 43 47 98
E 43 51 98
E 43 55 103
E 43 59 101
E 43 60 105
E 43 62 90
E 43 65 99
E 43 66 106
E 44 50 98
E 44 51 99
E 44 52 104
E 44 53 102
E 44 54 105
E 44 56 97
E 44 70 91
E 45 51 101
E 45 69 95
E 45 70 95
E 45 74 100
E 45 77 102
E 46 59 92
E 46 71 98
E 46 78 99
E 46 79 100
E 47 49 103
E 47 52 94
E 47 60 107
E 47 63 91
E 47 64 104
E 47 65 94
E 47 66 103
E 47 67 94
E 47 69 100
E 47 78 95
E 48 52 98
E 48 54 99
E 48 59 100
E 48 64 104
E 48 65 100
E 48 74 95
E 48 78 96
E 48 79 104
E 49 54 99
E 49 55 91
E 49 59 96
E 49 62 95
E 49 64 100
E 49 72 102
E 49 74 92
E 50 55 96
E 50 59 96
E 50 63 98
E 50 65 108
E 50 70 102
E 50 74 90
E 50 78 107
E 51 68 103
E 51 69 106
E 51 77 97
E 52 60 101
E 52 62 90
E 52 68 107
E 52 70 94
E 52 79 92
E 52 80 96
E 53 55 98
E 53 58 95
E 53 65 95
E 53 69 102
E 53 73 105
E 53 76 99
E 53 77 100
E 54 57 97
E 54 59 99
E 54 67 96
E 54 71 97
E 54 74 99
E 54 77 102
E 54 80 105
E 55 64 99
E 55 67 104
E 55 70 95
E 55 71 103
E 55 73 100
E 56 60 102
E 56 62 93
E 56 66 107
E 56 75 95
E 56 76 88
E 56 78 99
E 57 59 94
E 57 63 102
E 57 79 104
E 58 67 98
E 59 63 95
E 59 75 104
E 59 77 91
E 59 80 96
E 60 61 104
E 60 62 102
E 60 63 94
E 61 63 101
E 61 65 97
E 61 70 98
E 61 79 100
E 62 63 107
E 62 70 101
E 62 75 98
E 63 65 105
E 63 69 95
E 63 72 92
E 63 76 87
E 63 79 102
E 64 70 102
E 64 73 104
E 65 68 92
E 65 69 105
E 65 73 97
E 65 75 102
E 65 77 102
E 65 80 105
E 66 67 97
E 66 69 98
E 66 73 95
E 66 76 108
E 67 68 101
E 67 74 101
E 67 78 102
E 68 72 104
E 68 75 99
E 69 72 102
E 70 71 96
E 70 78 101
E 70 79 92
E 71 72 105
E 72 73 101
E 72 74 97
E 72 80 99
E 73 74 114
E 75 78 107
E 76 80 94
E 77 78 106
END

SECTION Terminals
Terminals 20
T 1
T 2
T 3
T 4
T 5
T 6
T 7
T 8
T 9
T 10
T 11
T 12
T 13
T 14
T 15
T 16
T 17
T 18
T 19
T 20
END

EOF
